param set_len = 16;
param target_sum = 4634614282;
param values := [1] 368761609 [2] 115835763 [3] 1073273780 [4] 175592443 [5] 89147068 [6] 640889536 [7] 912593643 [8] 401021413 [9] 932698273 [10] 708823465 [11] 886122683 [12] 525005491 [13] 618739413 [14] 64263123 [15] 1049001996 [16] 21087479 ;
